certificates/rado_a6_c116_N20.cnf
c Rad2 upper bound instance: x1 + 6*x2 - x3 = 116, interval [1,20]
p cnf 20 104
1 5 20 0
-1 -5 -20 0
2 6 20 0
-2 -6 -20 0
1 3 19 0
-1 -3 -19 0
3 7 20 0
-3 -7 -20 0
2 4 19 0
-2 -4 -19 0
4 8 20 0
-4 -8 -20 0
3 5 19 0
-3 -5 -19 0
5 9 20 0
-5 -9 -20 0
4 6 19 0
-4 -6 -19 0
6 10 20 0
-6 -10 -20 0
5 7 19 0
-5 -7 -19 0
7 11 20 0
-7 -11 -20 0
6 8 19 0
-6 -8 -19 0
8 12 20 0
-8 -12 -20 0
1 9 18 0
-1 -9 -18 0
7 9 19 0
-7 -9 -19 0
9 13 20 0
-9 -13 -20 0
2 10 18 0
-2 -10 -18 0
8 10 19 0
-8 -10 -19 0
10 14 20 0
-10 -14 -20 0
3 11 18 0
-3 -11 -18 0
9 11 19 0
-9 -11 -19 0
11 15 20 0
-11 -15 -20 0
4 12 18 0
-4 -12 -18 0
10 12 19 0
-10 -12 -19 0
12 16 20 0
-12 -16 -20 0
5 13 18 0
-5 -13 -18 0
11 13 19 0
-11 -13 -19 0
13 17 20 0
-13 -17 -20 0
6 14 18 0
-6 -14 -18 0
12 14 19 0
-12 -14 -19 0
14 18 20 0
-14 -18 -20 0
1 15 17 0
-1 -15 -17 0
7 15 18 0
-7 -15 -18 0
13 15 19 0
-13 -15 -19 0
15 19 20 0
-15 -19 -20 0
2 16 17 0
-2 -16 -17 0
8 16 18 0
-8 -16 -18 0
14 16 19 0
-14 -16 -19 0
16 20 0
-16 -20 0
3 17 0
-3 -17 0
9 17 18 0
-9 -17 -18 0
15 17 19 0
-15 -17 -19 0
4 17 18 0
-4 -17 -18 0
10 18 0
-10 -18 0
16 18 19 0
-16 -18 -19 0
5 17 19 0
-5 -17 -19 0
11 18 19 0
-11 -18 -19 0
17 19 0
-17 -19 0
6 17 20 0
-6 -17 -20 0
12 18 20 0
-12 -18 -20 0
18 19 20 0
-18 -19 -20 0
