certificates/rado_a6_c116_N20.drat
-19 -20 0
-20 0
16 0
19 0
-17 0
-14 0
-18 0
13 0
3 0
9 0
4 0
6 0
10 0
0
